c SAT problem
p wcnf 382 1008
1 -75 3165 0
1 -90 -3105 0
1 -90 3075 0
1 -105 -3150 0
1 -105 3120 0
1 105 3165 0
1 -3120 196 0
1 3120 75 0
1 -3120 -120 0
1 -3135 -181 0
1 -3150 60 0
1 -3165 105 0
1 -120 3075 0
1 120 121 0
1 -120 -3135 0
1 135 3105 0
1 135 -3135 0
1 -150 -3045 0
1 -165 3105 0
1 -165 -3075 0
1 -165 3045 0
1 -3060 225 0
1 -3060 -3075 0
1 -3060 -90 0
1 3075 -225 0
1 3075 210 0
1 -3075 -180 0
1 -3075 -3060 0
1 -3075 90 0
1 3090 3105 0
1 3090 -196 0
1 -3090 -135 0
1 -3090 -211 0
1 -3090 181 0
1 -3090 150 0
1 -3105 135 0
1 -3105 -211 0
1 3105 181 0
1 180 3060 0
1 180 -181 0
1 210 -225 0
1 210 3075 0
1 210 -3015 0
1 210 3030 0
1 225 3015 0
1 -3000 195 0
1 3000 -3015 0
1 3000 -210 0
1 -3015 -225 0
1 -3015 210 0
1 -3015 150 0
1 3030 3045 0
1 -3030 -240 0
1 -3030 315 0
1 -3030 -255 0
1 61 3300 0
1 -76 -75 0
1 76 -3315 0
1 -91 -3330 0
1 91 -3255 0
1 -106 -3330 0
1 -106 -3270 0
1 106 -107 0
1 -3300 166 0
1 -3300 3315 0
1 -3300 151 0
1 -3300 121 0
1 3300 61 0
1 3315 -166 0
1 3315 -182 0
1 -3330 197 0
1 -3330 3345 0
1 3330 122 0
1 121 -3270 0
1 136 135 0
1 136 137 0
1 -136 -3255 0
1 151 -3315 0
1 -166 3255 0
1 166 -167 0
1 -166 -3225 0
1 3255 -256 0
1 -3255 136 0
1 3270 -166 0
1 -3270 136 0
1 -3270 -3285 0
1 -3270 151 0
1 -3285 241 0
1 3285 -212 0
1 3285 3286 0
1 181 3150 0
1 -181 3120 0
1 -181 -3225 0
1 -181 -3195 0
1 196 3105 0
1 -196 3135 0
1 211 -3105 0
1 211 -3240 0
1 211 3121 0
1 211 3166 0
1 226 -3121 0
1 226 -211 0
1 226 -3195 0
1 3180 -226 0
1 3180 -301 0
1 -3180 -151 0
1 3195 3180 0
1 3195 -270 0
1 3210 -211 0
1 3210 151 0
1 3210 316 0
1 -3225 -256 0
1 3225 241 0
1 3225 151 0
1 240 -3180 0
1 -240 3195 0
1 255 -256 0
1 -255 3075 0
1 -255 -3180 0
1 -270 -3151 0
1 270 -3195 0
1 -285 3136 0
1 -285 -3091 0
1 -3121 345 0
1 -3136 -240 0
1 -3136 -3135 0
1 -3151 -3150 0
1 3151 -376 0
1 3151 285 0
1 3166 226 0
1 3166 -331 0
1 -3166 -211 0
1 3166 -316 0
1 -300 3106 0
1 -300 3015 0
1 -315 3045 0
1 315 -3121 0
1 -315 -3091 0
1 330 -3136 0
1 330 3061 0
1 345 -3091 0
1 -345 -3031 0
1 -3061 -420 0
1 3061 330 0
1 -3076 -420 0
1 3076 -435 0
1 3076 285 0
1 -3091 330 0
1 -3091 -300 0
1 -3091 -270 0
1 -3091 -435 0
1 3091 376 0
1 3091 345 0
1 -3106 330 0
1 3106 345 0
1 360 -375 0
1 -375 -3001 0
1 390 -405 0
1 390 -3031 0
1 390 3001 0
1 405 -3046 0
1 3001 -360 0
1 3001 3002 0
1 3016 360 0
1 3031 -3046 0
1 -3031 -360 0
1 -3031 -330 0
1 3031 -495 0
1 -3031 -465 0
1 -3046 3045 0
1 3046 -360 0
1 -62 -63 0
1 77 -3510 0
1 92 -3525 0
1 92 -3465 0
1 -107 -106 0
1 107 3420 0
1 -3480 183 0
1 3495 167 0
1 3495 -107 0
1 3495 -92 0
1 -3510 3511 0
1 3510 198 0
1 3510 -77 0
1 -3525 3526 0
1 3525 138 0
1 3525 -107 0
1 -3525 -183 0
1 -122 3450 0
1 122 -123 0
1 137 -3345 0
1 152 3360 0
1 152 3465 0
1 152 -3435 0
1 -152 3405 0
1 152 3450 0
1 -167 -3360 0
1 -167 3345 0
1 -167 -152 0
1 -3420 257 0
1 3420 -227 0
1 -3420 -197 0
1 -3420 182 0
1 3420 3421 0
1 -3435 257 0
1 3435 3436 0
1 -3435 122 0
1 -3450 213 0
1 -3450 -152 0
1 3450 -92 0
1 3465 -167 0
1 -3465 -213 0
1 3465 152 0
1 182 -3270 0
1 182 -3435 0
1 -182 3315 0
1 -197 3330 0
1 -197 -3435 0
1 -197 3375 0
1 212 3346 0
1 -212 -211 0
1 -212 -3390 0
1 227 -3360 0
1 227 -3301 0
1 -227 -3405 0
1 227 -3316 0
1 -3360 302 0
1 3360 271 0
1 3360 241 0
1 3375 -302 0
1 -3375 -3376 0
1 3375 212 0
1 -3375 152 0
1 3375 -286 0
1 -3390 197 0
1 -3390 3405 0
1 3390 -272 0
1 3390 212 0
1 3390 152 0
1 3405 -242 0
1 3405 -182 0
1 -3405 -317 0
1 241 3225 0
1 -256 3301 0
1 256 3270 0
1 -256 -3346 0
1 -256 255 0
1 286 -3301 0
1 286 -287 0
1 3301 256 0
1 -3301 -227 0
1 3301 301 0
1 -3316 286 0
1 3331 227 0
1 3331 362 0
1 3331 -302 0
1 -3346 347 0
1 -3346 -286 0
1 301 3210 0
1 -301 -3151 0
1 301 3316 0
1 -301 3256 0
1 316 3151 0
1 316 -315 0
1 316 -317 0
1 -331 -3301 0
1 -331 -330 0
1 346 -331 0
1 -346 3151 0
1 -346 -347 0
1 3241 -331 0
1 -3241 271 0
1 3241 -406 0
1 -3241 -286 0
1 3256 -3241 0
1 -3256 436 0
1 -3256 -376 0
1 -3256 316 0
1 -3271 331 0
1 -3271 -407 0
1 -3271 377 0
1 -3286 -3287 0
1 -3286 392 0
1 -3286 301 0
1 3286 3285 0
1 3286 -377 0
1 361 -376 0
1 376 -361 0
1 -376 -3181 0
1 -376 -377 0
1 -376 -3226 0
1 391 -3152 0
1 -391 -3091 0
1 391 -3226 0
1 -3181 391 0
1 -3181 361 0
1 3196 -361 0
1 -3196 -331 0
1 3196 -3181 0
1 -3211 -3212 0
1 3226 -421 0
1 3226 -376 0
1 -3226 3225 0
1 420 -435 0
1 420 3031 0
1 -435 3076 0
1 -435 -436 0
1 -435 3031 0
1 450 451 0
1 -450 3107 0
1 -450 -3181 0
1 -450 3062 0
1 465 -3046 0
1 465 -3122 0
1 465 -3092 0
1 -465 -3031 0
1 -465 3167 0
1 -3122 -480 0
1 3122 391 0
1 3122 495 0
1 3122 465 0
1 3122 -3121 0
1 3137 -480 0
1 -3137 556 0
1 -3152 -496 0
1 3152 -406 0
1 3167 -450 0
1 -3167 3152 0
1 480 -3137 0
1 -480 3107 0
1 -480 -3077 0
1 480 -3031 0
1 495 3107 0
1 -495 496 0
1 -495 3062 0
1 -510 3032 0
1 525 -526 0
1 3062 -450 0
1 3062 600 0
1 -3062 -510 0
1 3077 -615 0
1 3077 495 0
1 3092 465 0
1 3092 -510 0
1 -3107 -3092 0
1 -3107 571 0
1 -3107 -541 0
1 -3107 510 0
1 540 -3032 0
1 -555 -3032 0
1 -570 3047 0
1 570 3062 0
1 -585 3047 0
1 585 3017 0
1 -585 -3062 0
1 585 570 0
1 3002 -555 0
1 3017 660 0
1 3017 510 0
1 -3032 3047 0
1 -3032 555 0
1 -3032 525 0
1 -3032 630 0
1 -3032 -570 0
1 3047 675 0
1 -3047 3046 0
1 3047 555 0
1 -3047 -570 0
1 -63 -3660 0
1 93 3630 0
1 -93 3600 0
1 -3660 168 0
1 3675 -93 0
1 -3705 78 0
1 3705 63 0
1 123 3675 0
1 123 -3615 0
1 -138 -3525 0
1 -138 3630 0
1 -153 -3585 0
1 153 3555 0
1 -153 168 0
1 -153 3570 0
1 -153 3675 0
1 168 3555 0
1 168 -3675 0
1 -3615 3616 0
1 -3615 93 0
1 3630 -258 0
1 3630 138 0
1 3630 -108 0
1 -3630 -3631 0
1 -3630 243 0
1 198 197 0
1 -198 3480 0
1 213 -3496 0
1 -213 3465 0
1 -213 3540 0
1 228 -3600 0
1 -228 -213 0
1 -228 -3511 0
1 228 3481 0
1 -3540 272 0
1 3540 3541 0
1 3555 198 0
1 3570 198 0
1 3570 -303 0
1 -3570 273 0
1 -3570 213 0
1 -3570 -153 0
1 3585 -303 0
1 -3585 -243 0
1 -242 -3496 0
1 -242 -3511 0
1 242 3450 0
1 257 3555 0
1 272 3451 0
1 287 -3466 0
1 287 -3436 0
1 -287 3481 0
1 -287 3421 0
1 -3481 228 0
1 3481 -3482 0
1 3481 -272 0
1 -3481 -213 0
1 -3496 -228 0
1 3496 -3495 0
1 3496 -302 0
1 3496 3481 0
1 3496 -378 0
1 3511 213 0
1 3511 287 0
1 3526 303 0
1 -3526 213 0
1 3526 378 0
1 302 -301 0
1 -317 3331 0
1 -317 -3405 0
1 -317 3375 0
1 -317 3346 0
1 317 3481 0
1 317 -318 0
1 -332 3466 0
1 332 -333 0
1 -332 -347 0
1 347 -3496 0
1 -347 332 0
1 347 348 0
1 347 -3421 0
1 3421 -332 0
1 -3421 -407 0
1 -3436 3435 0
1 -3451 393 0
1 -3451 -363 0
1 -3451 347 0
1 -3451 -3452 0
1 3451 317 0
1 362 3406 0
1 377 -3331 0
1 377 -3346 0
1 -377 376 0
1 -392 -3361 0
1 392 -3317 0
1 -392 3286 0
1 -392 407 0
1 407 3332 0
1 -407 3376 0
1 -3361 3360 0
1 -3361 332 0
1 3361 -436 0
1 -3376 -451 0
1 -3376 -407 0
1 3376 347 0
1 3391 -467 0
1 3391 437 0
1 -3406 332 0
1 3406 -437 0
1 3406 407 0
1 -421 3302 0
1 421 -436 0
1 421 -3317 0
1 436 -3302 0
1 436 -3271 0
1 -451 -450 0
1 -451 3302 0
1 -451 -3272 0
1 -451 466 0
1 -451 -3287 0
1 -466 3361 0
1 466 3211 0
1 466 -3347 0
1 -466 -3317 0
1 466 -3226 0
1 -3302 451 0
1 3302 3303 0
1 3302 -511 0
1 3317 451 0
1 3317 -421 0
1 3317 -557 0
1 3332 -512 0
1 3332 -482 0
1 -3332 557 0
1 -3332 527 0
1 -3332 -3347 0
1 -3332 407 0
1 -3347 421 0
1 -3347 436 0
1 -3347 -407 0
1 481 -480 0
1 481 482 0
1 496 497 0
1 -496 -3226 0
1 511 526 0
1 -511 -3317 0
1 -511 3227 0
1 -511 -510 0
1 526 3302 0
1 -526 -3182 0
1 -526 -3227 0
1 -3242 481 0
1 -3242 -616 0
1 3242 3241 0
1 3242 3243 0
1 -3242 -556 0
1 -3242 -496 0
1 3257 -481 0
1 -3257 451 0
1 3257 -601 0
1 -3257 -511 0
1 -3272 -616 0
1 3272 526 0
1 3272 511 0
1 -3287 -481 0
1 3287 -587 0
1 -3287 -526 0
1 -3287 511 0
1 -541 3182 0
1 -541 3227 0
1 556 3137 0
1 556 -555 0
1 -556 -3257 0
1 556 3227 0
1 571 -586 0
1 571 -3197 0
1 586 3168 0
1 586 3242 0
1 -586 -3227 0
1 3182 3181 0
1 -3182 -3183 0
1 -3197 -676 0
1 3197 -645 0
1 3197 615 0
1 3197 -600 0
1 -3197 571 0
1 3197 -3196 0
1 -3197 -541 0
1 3212 586 0
1 -3212 -3211 0
1 -3212 -556 0
1 -3212 -526 0
1 -3212 -661 0
1 3212 511 0
1 -3227 -571 0
1 600 -3168 0
1 -600 -3182 0
1 -600 -3153 0
1 -600 601 0
1 615 3047 0
1 615 -3153 0
1 -615 -3092 0
1 630 3168 0
1 630 3182 0
1 645 3138 0
1 645 3108 0
1 645 3078 0
1 -645 3093 0
1 3123 -645 0
1 -3123 -721 0
1 -3123 630 0
1 -3138 -736 0
1 -3138 705 0
1 -3138 -675 0
1 3138 721 0
1 -3138 -690 0
1 3138 -3123 0
1 -3153 736 0
1 3153 -706 0
1 3168 736 0
1 -3168 -630 0
1 660 -675 0
1 -660 3108 0
1 -660 -3063 0
1 675 3032 0
1 -690 -3108 0
1 -705 -3138 0
1 -705 3078 0
1 -705 -3123 0
1 3063 3062 0
1 3063 765 0
1 -3078 -705 0
1 3078 -735 0
1 -3093 -3108 0
1 -3093 645 0
1 -3108 751 0
1 -720 -3018 0
1 720 -721 0
1 -735 -3048 0
1 735 3033 0
1 -750 3003 0
1 -765 -3078 0
1 765 3063 0
1 765 -3033 0
1 3003 -690 0
1 -3018 705 0
1 3018 -690 0
1 3033 720 0
1 -3033 3032 0
1 -3033 735 0
1 3048 750 0
1 3048 -720 0
1 243 3600 0
1 -243 -3706 0
1 -243 -3676 0
1 243 3645 0
1 273 3661 0
1 -273 3676 0
1 273 -3646 0
1 288 -3661 0
1 288 -3601 0
1 3661 -3660 0
1 3661 348 0
1 3676 333 0
1 3676 -3661 0
1 3676 243 0
1 -3691 -258 0
1 3691 3706 0
1 -3706 3707 0
1 -3706 243 0
1 303 -3526 0
1 -303 3676 0
1 318 303 0
1 -318 -3631 0
1 -318 -3676 0
1 333 -3616 0
1 -333 3586 0
1 -333 3646 0
1 -348 3631 0
1 348 3601 0
1 -3601 3600 0
1 -3601 3602 0
1 -3601 -408 0
1 -3616 3601 0
1 -3616 -438 0
1 -3631 423 0
1 -3646 -303 0
1 3646 3631 0
1 3646 -3647 0
1 -363 -3616 0
1 363 3466 0
1 363 -3541 0
1 -378 3616 0
1 -378 3526 0
1 -378 -3601 0
1 378 -3571 0
1 378 3511 0
1 378 -377 0
1 -393 -3586 0
1 -393 -3512 0
1 -393 3527 0
1 393 392 0
1 408 -3586 0
1 408 3571 0
1 -408 407 0
1 -408 -3512 0
1 3541 378 0
1 3541 348 0
1 -3556 -452 0
1 -3571 453 0
1 3571 -468 0
1 3571 -378 0
1 -3586 -333 0
1 3586 438 0
1 3586 408 0
1 422 -423 0
1 422 -3527 0
1 -422 -3497 0
1 -422 -3436 0
1 422 -3406 0
1 -422 437 0
1 -422 3541 0
1 422 3451 0
1 -437 -3406 0
1 -452 -3527 0
1 -452 3406 0
1 -452 3482 0
1 -467 -3437 0
1 -467 -468 0
1 467 3512 0
1 467 3482 0
1 -467 -3422 0
1 -467 3391 0
1 -3482 452 0
1 -3482 393 0
1 3482 -3497 0
1 -3482 543 0
1 3497 -452 0
1 3497 -393 0
1 -3512 -422 0
1 -3527 393 0
1 3527 3528 0
1 3527 -558 0
1 3527 -498 0
1 3527 -543 0
1 482 3467 0
1 -497 -3376 0
1 -497 -498 0
1 -512 -3362 0
1 512 3497 0
1 -512 3482 0
1 -512 3422 0
1 -527 -512 0
1 -527 3377 0
1 -527 3452 0
1 -3422 3437 0
1 -3422 467 0
1 3422 572 0
1 -3437 617 0
1 3452 -512 0
1 -3452 452 0
1 -3452 -558 0
1 3452 -527 0
1 -3452 3453 0
1 3452 -602 0
1 3452 543 0
1 -3467 3466 0
1 3467 588 0
1 3467 -602 0
1 3467 -543 0
1 557 -3317 0
1 572 3362 0
1 -572 3272 0
1 -572 3348 0
1 -572 3318 0
1 572 3287 0
1 572 -573 0
1 -587 3303 0
1 587 -3272 0
1 -587 586 0
1 -587 -588 0
1 -587 -3348 0
1 3362 -557 0
1 -3362 527 0
1 -3362 -572 0
1 3377 3362 0
1 -3377 677 0
1 3377 -527 0
1 -3392 -587 0
1 -3392 -572 0
1 -3407 -677 0
1 -3407 -617 0
1 3407 -3408 0
1 -3407 602 0
1 -601 -3362 0
1 -601 3333 0
1 -601 -3348 0
1 601 3257 0
1 -616 3377 0
1 -616 3348 0
1 -616 -3287 0
1 631 646 0
1 -631 -3212 0
1 -631 3318 0
1 -646 -645 0
1 646 -3212 0
1 646 3288 0
1 -3303 -676 0
1 3303 -587 0
1 -3303 -601 0
1 3318 631 0
1 -3318 -572 0
1 3333 -707 0
1 -3333 -616 0
1 -3333 587 0
1 -3348 -737 0
1 3348 616 0
1 -661 -3168 0
1 661 3273 0
1 -661 3288 0
1 676 3168 0
1 -676 -3212 0
1 -676 -3182 0
1 676 661 0
1 -676 3318 0
1 -676 3227 0
1 706 -3168 0
1 -706 -3153 0
1 3243 -751 0
1 -3243 -3258 0
1 3258 646 0
1 3273 706 0
1 -3273 676 0
1 3273 -631 0
1 -3288 676 0
1 3288 -646 0
1 -3288 -3273 0
1 -721 -3108 0
1 -721 -3213 0
1 -721 720 0
1 -721 3123 0
1 736 -3243 0
1 736 3153 0
1 -736 -3093 0
1 -751 3108 0
1 751 -3258 0
1 751 3213 0
1 751 -3093 0
1 -766 3228 0
1 766 3198 0
1 3183 -736 0
1 -3183 706 0
1 3183 3182 0
1 3183 691 0
1 3183 766 0
1 3213 -751 0
1 -3213 -3228 0
1 3213 -691 0
1 3228 736 0
1 -3228 706 0
1 -423 3586 0
1 -438 -423 0
1 -438 3601 0
1 -453 3617 0
1 453 -452 0
1 -468 -3632 0
1 -468 467 0
1 468 -3707 0
1 3662 3663 0
1 3677 483 0
1 -3677 -3662 0
1 -3677 3676 0
1 -3677 -3678 0
1 -3692 453 0
1 3692 423 0
1 3707 3706 0
1 -483 -3662 0
1 -483 -3571 0
1 -483 -3512 0
1 498 3527 0
1 -498 -3647 0
1 -513 -512 0
1 513 -3527 0
1 513 -3632 0
1 528 513 0
1 -528 3527 0
1 528 3542 0
1 3602 483 0
1 3602 -498 0
1 3602 468 0
1 3602 -573 0
1 3617 -483 0
1 -3617 -603 0
1 3632 483 0
1 3632 -453 0
1 3632 468 0
1 3632 -603 0
1 3632 3647 0
1 -3647 -483 0
1 3647 -3632 0
1 -3647 -498 0
1 -3647 -468 0
1 -3647 -603 0
1 -543 -558 0
1 543 -3482 0
1 558 3587 0
1 558 3542 0
1 -558 3452 0
1 573 3617 0
1 573 3513 0
1 -573 -3483 0
1 -573 3452 0
1 573 -572 0
1 -588 3557 0
1 588 -3528 0
1 588 3498 0
1 -3542 -3543 0
1 -3542 558 0
1 3542 -632 0
1 3542 -573 0
1 3542 543 0
1 -3557 -617 0
1 3572 678 0
1 -3572 588 0
1 -3572 3573 0
1 -3572 603 0
1 3572 543 0
1 3587 513 0
1 -3587 -3586 0
1 3587 -678 0
1 602 3392 0
1 602 3498 0
1 -602 3467 0
1 -602 3407 0
1 -617 3392 0
1 617 3557 0
1 617 -3528 0
1 -632 -631 0
1 647 -3392 0
1 647 3438 0
1 -647 -3483 0
1 -3483 707 0
1 3483 -588 0
1 -3483 -3482 0
1 3498 617 0
1 3498 632 0
1 -3498 573 0
1 3513 3528 0
1 3528 693 0
1 3528 663 0
1 -3528 602 0
1 -662 3333 0
1 662 3498 0
1 662 -3348 0
1 662 3423 0
1 -677 -3392 0
1 677 3362 0
1 -677 -3498 0
1 677 -662 0
1 -692 -3363 0
1 -692 -3348 0
1 707 -3363 0
1 -707 -3498 0
1 707 3378 0
1 707 3423 0
1 -3423 -662 0
1 -3438 -737 0
1 3438 -677 0
1 3438 -632 0
1 -3453 -768 0
1 3453 -738 0
1 -3453 -753 0
1 -3453 723 0
1 3453 -692 0
1 -3453 -3452 0
1 -3468 -707 0
1 -3468 -3467 0
1 -722 737 0
1 -722 -3303 0
1 737 3303 0
1 -737 3438 0
1 737 -3423 0
1 -752 3273 0
1 -752 753 0
1 -767 768 0
1 -767 -3408 0
1 -767 3288 0
1 3378 737 0
1 3378 692 0
1 -3393 -737 0
1 -3393 707 0
1 -3393 3408 0
1 3408 692 0
1 -603 3693 0
1 -603 -3602 0
1 -618 -3587 0
1 -618 3632 0
1 618 -603 0
1 -618 -3708 0
1 -648 -3572 0
1 3663 648 0
1 3663 -618 0
1 -3663 -693 0
1 -3663 663 0
1 -3678 648 0
1 -3678 618 0
1 3693 603 0
1 3708 -633 0
1 -663 -3528 0
1 663 3663 0
1 -663 -3603 0
1 678 -3648 0
1 678 677 0
1 693 3588 0
1 -708 -3618 0
1 -708 -3588 0
1 -708 3558 0
1 708 -3603 0
1 -708 -3543 0
1 -3603 708 0
1 3603 3602 0
1 3618 678 0
1 3618 -648 0
1 3633 708 0
1 3648 648 0
1 723 3618 0
1 -723 -3498 0
1 -723 3468 0
1 723 722 0
1 738 3498 0
1 738 3603 0
1 738 3483 0
1 753 3618 0
1 -753 -3603 0
1 -768 -753 0
1 768 3573 0
1 -768 -767 0
1 -3558 -693 0
1 -3573 708 0
1 3588 -753 0
